c File: instances/24_0.45_2.col
c
c Description: Random graph of size 24 vertices and P(0.44999999999999996) of edges between any two vertices.
p col 24 276
e 1 5
e 1 9
e 1 11
e 1 12
e 1 16
e 1 17
e 1 18
e 1 22
e 1 23
e 1 24
e 2 5
e 2 7
e 2 8
e 2 10
e 2 11
e 2 13
e 2 14
e 2 15
e 2 16
e 2 17
e 2 18
e 2 24
e 3 4
e 3 12
e 3 13
e 3 14
e 3 21
e 3 22
e 3 23
e 4 7
e 4 9
e 4 10
e 4 11
e 4 13
e 4 14
e 4 15
e 4 17
e 4 18
e 4 19
e 4 20
e 4 21
e 4 22
e 4 24
e 5 7
e 5 11
e 5 13
e 5 16
e 5 18
e 5 20
e 5 21
e 5 24
e 6 7
e 6 8
e 6 9
e 6 10
e 6 12
e 6 13
e 6 14
e 6 18
e 6 20
e 6 24
e 7 10
e 7 11
e 7 12
e 7 15
e 7 16
e 7 18
e 7 21
e 7 22
e 8 10
e 8 12
e 8 13
e 8 15
e 8 16
e 9 10
e 9 11
e 9 13
e 9 15
e 9 17
e 9 20
e 9 24
e 10 12
e 10 13
e 10 15
e 10 16
e 10 18
e 10 19
e 10 20
e 10 21
e 10 23
e 11 12
e 11 13
e 11 16
e 11 19
e 11 21
e 11 22
e 12 18
e 12 20
e 12 21
e 12 23
e 12 24
e 13 15
e 13 18
e 13 19
e 13 22
e 14 21
e 15 18
e 15 19
e 15 20
e 16 17
e 16 18
e 16 20
e 16 21
e 17 19
e 17 20
e 17 21
e 17 23
e 18 19
e 19 20
e 19 22
e 19 23
e 21 22
e 21 23
e 22 23